3 3 2
30 0 43 2 36 0 88 1 81 2 17 0 4 2 80 1 23 2 20 1 74 0 87 1 51 0 14 1 2 2 20 0 90 2 43 0 40 1 39 0 74 2 51 1 83 0 23 1 7 2 77 0 5 1 96 2 60 0 68 2 3 
30 1 19 0 43 1 17 2 41 1 77 0 72 2 11 1 63 2 62 0 68 1 69 2 91 1 10 2 57 0 19 2 18 1 33 2 1 0 79 1 22 0 75 2 1 1 64 2 81 0 96 2 68 0 62 2 90 0 41 2 79 
30 0 46 1 12 0 88 1 91 0 76 2 19 0 41 2 38 0 51 1 75 2 20 1 80 0 54 1 30 0 77 2 34 0 16 2 13 0 58 1 28 0 74 2 76 0 34 1 13 2 11 1 54 2 9 1 14 0 28 1 81 

-------------
